ilp_joint/output/germination_ilp.lp
Maximize
  0.00609586465897474 Z_513_0_0 + 0.3565823310816212 Z_513_0_1
   + 2.8937224996181869e-04 Z_513_0_2 + 0.0226782794721922 Z_513_0_3
   + 0.5143541525372503 Z_513_0_4 + 0.0225249079737055 Z_209_0_0
   + 0.5055035458522728 Z_209_0_1 + 0.101097617819567 Z_209_0_2
   + 0.0806463718055396 Z_209_0_3 + 0.1902275565489151 Z_209_0_4
   + 0.0026980040206534 Z_729_2_0 + 0.00281065908487568 Z_729_2_1
   + 0.2173776043721531 Z_729_2_2 + 0.00598225574342668 Z_729_2_3
   + 0.6711314767788911 Z_729_2_4 + 0.00123449979236415 Z_729_4_0
   + 0.00890898566645182 Z_729_4_1 + 0.0766376705460377 Z_729_4_2
   + 0.00268029446021141 Z_729_4_3 + 0.8105385495349349 Z_729_4_4
   + 0.0118740838422956 Z_729_3_0 + 0.0103529140592471 Z_729_3_1
   + 0.00901694971341009 Z_729_3_2 + 0.0238012778618705 Z_729_3_3
   + 0.8449547745231766 Z_729_3_4 + 0.00521798348011741 Z_729_1_0
   + 0.00538860781054068 Z_729_1_1 + 0.0117391748327343 Z_729_1_2
   + 0.00711047842719007 Z_729_1_3 + 0.8705437554494176 Z_729_1_4
   + 0.00123449979236415 Z_729_5_0 + 0.00890898566645182 Z_729_5_1
   + 0.0766376705460377 Z_729_5_2 + 0.00268029446021141 Z_729_5_3
   + 0.8105385495349349 Z_729_5_4 + 0.00664808382515422 Z_148_0_0
   + 0.6222901693388181 Z_148_0_1 + 0.00415831907617644 Z_148_0_2
   + 0.0117650444947973 Z_148_0_3 + 0.2551383832650538 Z_148_0_4
   + 0.0240888187350606 Z_637_0_0 + 0.7906658114701967 Z_637_0_1
   + 0.00458079073017457 Z_637_0_2 + 0.0010604558220938 Z_637_0_3
   + 0.0796041232424744 Z_637_0_4 + 0.0198218946121809 Z_593_4_0
   + 0.00414407075819887 Z_593_4_1 + 0.1420609478408654 Z_593_4_2
   + 0.010794544626654 Z_593_4_3 + 0.7231785421621008 Z_593_4_4
   + 0.576732904539301 Z_593_5_0 + 0.0720586445251409 Z_593_5_1
   + 0.00286638679034458 Z_593_5_2 + 0.0512244331300999 Z_593_5_3
   + 0.1971176310151138 Z_593_5_4 + 2.731462364184922e-04 Z_593_1_0
   + 0.00031719 Z_593_1_1 + 0.528893765763515 Z_593_1_2
   + 0.00129164759736263 Z_593_1_3 + 0.369224250434723 Z_593_1_4
   + 0.576732904539301 Z_593_2_0 + 0.0720586445251409 Z_593_2_1
   + 0.00286638679034458 Z_593_2_2 + 0.0512244331300999 Z_593_2_3
   + 0.1971176310151138 Z_593_2_4 + 2.731462364184922e-04 Z_593_0_0
   + 0.00031719 Z_593_0_1 + 0.528893765763515 Z_593_0_2
   + 0.00129164759736263 Z_593_0_3 + 0.369224250434723 Z_593_0_4
   + 0.00229527368778563 Z_585_0_0 + 0.00248251626191874 Z_585_0_1
   + 0.7115116371313162 Z_585_0_2 + 0.00446763722839379 Z_585_0_3
   + 0.1792429356905856 Z_585_0_4 + 0.00229527368778563 Z_226_0_0
   + 0.00248251626191874 Z_226_0_1 + 0.7115116371313162 Z_226_0_2
   + 0.00446763722839379 Z_226_0_3 + 0.1792429356905856 Z_226_0_4
   + 0.0504714511091529 Z_33_0_0 + 0.0630655964799552 Z_33_0_1
   + 0.00919954543151758 Z_33_0_2 + 0.0977431758381575 Z_33_0_3
   + 0.6795202311412168 Z_33_0_4 + 0.000114402 Z_467_4_0
   + 0.00474628101407488 Z_467_4_1 + 0.027423910845666 Z_467_4_2
   + 0.00177795160898056 Z_467_4_3 + 0.8659374545149715 Z_467_4_4
   + 0.0284180547850918 Z_467_8_0 + 0.3572887792229248 Z_467_8_1
   + 0.00898199432067045 Z_467_8_2 + 0.00130933047997622 Z_467_8_3
   + 0.5040018411913366 Z_467_8_4 + 0.0214466336212129 Z_467_2_0
   + 0.0313507949368033 Z_467_2_1 + 0.0110287050961189 Z_467_2_2
   + 0.00694790300895651 Z_467_2_3 + 0.8292259633369083 Z_467_2_4
   + 0.0155306538540461 Z_467_3_0 + 0.0277101808129006 Z_467_3_1
   + 0.0124744726762353 Z_467_3_2 + 0.00722199548590798 Z_467_3_3
   + 0.8370626971709099 Z_467_3_4 + 0.0229706800073743 Z_467_0_0
   + 0.4869858646686236 Z_467_0_1 + 0.00315452566898558 Z_467_0_2
   + 0.0227218173595482 Z_467_0_3 + 0.3641671122954684 Z_467_0_4
   + 0.000114402 Z_467_5_0 + 0.00474628101407488 Z_467_5_1
   + 0.027423910845666 Z_467_5_2 + 0.00177795160898056 Z_467_5_3
   + 0.8659374545149715 Z_467_5_4 + 0.00183426950494778 Z_467_1_0
   + 0.00815100682955404 Z_467_1_1 + 0.00522010705330832 Z_467_1_2
   + 0.00792796016637607 Z_467_1_3 + 0.8768666564458137 Z_467_1_4
   + 0.0126248424891049 Z_467_9_0 + 0.0989149462844487 Z_467_9_1
   + 0.005859054936153 Z_467_9_2 + 0.0180575926377946 Z_467_9_3
   + 0.7645435636524989 Z_467_9_4 + 0.003094521304081 Z_467_7_0
   + 0.1350681829988638 Z_467_7_1 + 0.00803031810883457 Z_467_7_2
   + 0.0797897520288617 Z_467_7_3 + 0.6740172255593591 Z_467_7_4
   + 0.0140672154312646 Z_467_6_0 + 0.0635681787324871 Z_467_6_1
   + 0.0208704771206272 Z_467_6_2 + 0.00198849321576197 Z_467_6_3
   + 0.7995056354998593 Z_467_6_4 + 0.0340395660040239 Z_2_0_0
   + 0.7751016880701033 Z_2_0_1 + 0.00542306987110536 Z_2_0_2
   + 0.00116146482762878 Z_2_0_3 + 0.0842742112271388 Z_2_0_4
   + 0.010494692159211 Z_620_0_0 + 0.2987442275679213 Z_620_0_1
   + 0.00943493486109547 Z_620_0_2 + 0.1130212330116901 Z_620_0_3
   + 0.468304912400082 Z_620_0_4
Subject To
 constraint1_5130: Z_513_0_0 + Z_513_0_1 + Z_513_0_2 + Z_513_0_3
   + Z_513_0_4 <= 1
 constraint1_2090: Z_209_0_0 + Z_209_0_1 + Z_209_0_2 + Z_209_0_3
   + Z_209_0_4 <= 1
 constraint1_7292: Z_729_2_0 + Z_729_2_1 + Z_729_2_2 + Z_729_2_3
   + Z_729_2_4 <= 1
 constraint1_7294: Z_729_4_0 + Z_729_4_1 + Z_729_4_2 + Z_729_4_3
   + Z_729_4_4 <= 1
 constraint1_7293: Z_729_3_0 + Z_729_3_1 + Z_729_3_2 + Z_729_3_3
   + Z_729_3_4 <= 1
 constraint1_7291: Z_729_1_0 + Z_729_1_1 + Z_729_1_2 + Z_729_1_3
   + Z_729_1_4 <= 1
 constraint1_7295: Z_729_5_0 + Z_729_5_1 + Z_729_5_2 + Z_729_5_3
   + Z_729_5_4 <= 1
 constraint1_1480: Z_148_0_0 + Z_148_0_1 + Z_148_0_2 + Z_148_0_3
   + Z_148_0_4 <= 1
 constraint1_6370: Z_637_0_0 + Z_637_0_1 + Z_637_0_2 + Z_637_0_3
   + Z_637_0_4 <= 1
 constraint1_5934: Z_593_4_0 + Z_593_4_1 + Z_593_4_2 + Z_593_4_3
   + Z_593_4_4 <= 1
 constraint1_5935: Z_593_5_0 + Z_593_5_1 + Z_593_5_2 + Z_593_5_3
   + Z_593_5_4 <= 1
 constraint1_5931: Z_593_1_0 + Z_593_1_1 + Z_593_1_2 + Z_593_1_3
   + Z_593_1_4 <= 1
 constraint1_5932: Z_593_2_0 + Z_593_2_1 + Z_593_2_2 + Z_593_2_3
   + Z_593_2_4 <= 1
 constraint1_5930: Z_593_0_0 + Z_593_0_1 + Z_593_0_2 + Z_593_0_3
   + Z_593_0_4 <= 1
 constraint1_5850: Z_585_0_0 + Z_585_0_1 + Z_585_0_2 + Z_585_0_3
   + Z_585_0_4 <= 1
 constraint1_2260: Z_226_0_0 + Z_226_0_1 + Z_226_0_2 + Z_226_0_3
   + Z_226_0_4 <= 1
 constraint1_330: Z_33_0_0 + Z_33_0_1 + Z_33_0_2 + Z_33_0_3 + Z_33_0_4
   <= 1
 constraint1_4674: Z_467_4_0 + Z_467_4_1 + Z_467_4_2 + Z_467_4_3
   + Z_467_4_4 <= 1
 constraint1_4678: Z_467_8_0 + Z_467_8_1 + Z_467_8_2 + Z_467_8_3
   + Z_467_8_4 <= 1
 constraint1_4672: Z_467_2_0 + Z_467_2_1 + Z_467_2_2 + Z_467_2_3
   + Z_467_2_4 <= 1
 constraint1_4673: Z_467_3_0 + Z_467_3_1 + Z_467_3_2 + Z_467_3_3
   + Z_467_3_4 <= 1
 constraint1_4670: Z_467_0_0 + Z_467_0_1 + Z_467_0_2 + Z_467_0_3
   + Z_467_0_4 <= 1
 constraint1_4675: Z_467_5_0 + Z_467_5_1 + Z_467_5_2 + Z_467_5_3
   + Z_467_5_4 <= 1
 constraint1_4671: Z_467_1_0 + Z_467_1_1 + Z_467_1_2 + Z_467_1_3
   + Z_467_1_4 <= 1
 constraint1_4679: Z_467_9_0 + Z_467_9_1 + Z_467_9_2 + Z_467_9_3
   + Z_467_9_4 <= 1
 constraint1_4677: Z_467_7_0 + Z_467_7_1 + Z_467_7_2 + Z_467_7_3
   + Z_467_7_4 <= 1
 constraint1_4676: Z_467_6_0 + Z_467_6_1 + Z_467_6_2 + Z_467_6_3
   + Z_467_6_4 <= 1
 constraint1_20: Z_2_0_0 + Z_2_0_1 + Z_2_0_2 + Z_2_0_3 + Z_2_0_4 <= 1
 constraint1_6200: Z_620_0_0 + Z_620_0_1 + Z_620_0_2 + Z_620_0_3
   + Z_620_0_4 <= 1
 constraint2_6350: <= 1
 constraint2_6351: <= 1
 constraint2_6352: <= 1
 constraint2_6353: <= 1
 constraint2_5130: Z_513_0_0 <= 1
 constraint2_5131: Z_513_0_1 <= 1
 constraint2_5132: Z_513_0_2 <= 1
 constraint2_5133: Z_513_0_3 <= 1
 constraint2_2090: Z_209_0_0 <= 1
 constraint2_2091: Z_209_0_1 <= 1
 constraint2_2092: Z_209_0_2 <= 1
 constraint2_2093: Z_209_0_3 <= 1
 constraint2_7290: Z_729_2_0 + Z_729_4_0 + Z_729_3_0 + Z_729_1_0
   + Z_729_5_0 <= 1
 constraint2_7291: Z_729_2_1 + Z_729_4_1 + Z_729_3_1 + Z_729_1_1
   + Z_729_5_1 <= 1
 constraint2_7292: Z_729_2_2 + Z_729_4_2 + Z_729_3_2 + Z_729_1_2
   + Z_729_5_2 <= 1
 constraint2_7293: Z_729_2_3 + Z_729_4_3 + Z_729_3_3 + Z_729_1_3
   + Z_729_5_3 <= 1
 constraint2_1480: Z_148_0_0 <= 1
 constraint2_1481: Z_148_0_1 <= 1
 constraint2_1482: Z_148_0_2 <= 1
 constraint2_1483: Z_148_0_3 <= 1
 constraint2_3330: <= 1
 constraint2_3331: <= 1
 constraint2_3332: <= 1
 constraint2_3333: <= 1
 constraint2_2430: <= 1
 constraint2_2431: <= 1
 constraint2_2432: <= 1
 constraint2_2433: <= 1
 constraint2_5260: <= 1
 constraint2_5261: <= 1
 constraint2_5262: <= 1
 constraint2_5263: <= 1
 constraint2_6370: Z_637_0_0 <= 1
 constraint2_6371: Z_637_0_1 <= 1
 constraint2_6372: Z_637_0_2 <= 1
 constraint2_6373: Z_637_0_3 <= 1
 constraint2_3510: <= 1
 constraint2_3511: <= 1
 constraint2_3512: <= 1
 constraint2_3513: <= 1
 constraint2_5930: Z_593_4_0 + Z_593_5_0 + Z_593_1_0 + Z_593_2_0
   + Z_593_0_0 <= 1
 constraint2_5931: Z_593_4_1 + Z_593_5_1 + Z_593_1_1 + Z_593_2_1
   + Z_593_0_1 <= 1
 constraint2_5932: Z_593_4_2 + Z_593_5_2 + Z_593_1_2 + Z_593_2_2
   + Z_593_0_2 <= 1
 constraint2_5933: Z_593_4_3 + Z_593_5_3 + Z_593_1_3 + Z_593_2_3
   + Z_593_0_3 <= 1
 constraint2_4970: <= 1
 constraint2_4971: <= 1
 constraint2_4972: <= 1
 constraint2_4973: <= 1
 constraint2_5850: Z_585_0_0 <= 1
 constraint2_5851: Z_585_0_1 <= 1
 constraint2_5852: Z_585_0_2 <= 1
 constraint2_5853: Z_585_0_3 <= 1
 constraint2_5050: <= 1
 constraint2_5051: <= 1
 constraint2_5052: <= 1
 constraint2_5053: <= 1
 constraint2_2260: Z_226_0_0 <= 1
 constraint2_2261: Z_226_0_1 <= 1
 constraint2_2262: Z_226_0_2 <= 1
 constraint2_2263: Z_226_0_3 <= 1
 constraint2_330: Z_33_0_0 <= 1
 constraint2_331: Z_33_0_1 <= 1
 constraint2_332: Z_33_0_2 <= 1
 constraint2_333: Z_33_0_3 <= 1
 constraint2_4660: <= 1
 constraint2_4661: <= 1
 constraint2_4662: <= 1
 constraint2_4663: <= 1
 constraint2_7260: <= 1
 constraint2_7261: <= 1
 constraint2_7262: <= 1
 constraint2_7263: <= 1
 constraint2_2350: <= 1
 constraint2_2351: <= 1
 constraint2_2352: <= 1
 constraint2_2353: <= 1
 constraint2_5740: <= 1
 constraint2_5741: <= 1
 constraint2_5742: <= 1
 constraint2_5743: <= 1
 constraint2_4670: Z_467_4_0 + Z_467_8_0 + Z_467_2_0 + Z_467_3_0
   + Z_467_0_0 + Z_467_5_0 + Z_467_1_0 + Z_467_9_0 + Z_467_7_0 + Z_467_6_0
   <= 1
 constraint2_4671: Z_467_4_1 + Z_467_8_1 + Z_467_2_1 + Z_467_3_1
   + Z_467_0_1 + Z_467_5_1 + Z_467_1_1 + Z_467_9_1 + Z_467_7_1 + Z_467_6_1
   <= 1
 constraint2_4672: Z_467_4_2 + Z_467_8_2 + Z_467_2_2 + Z_467_3_2
   + Z_467_0_2 + Z_467_5_2 + Z_467_1_2 + Z_467_9_2 + Z_467_7_2 + Z_467_6_2
   <= 1
 constraint2_4673: Z_467_4_3 + Z_467_8_3 + Z_467_2_3 + Z_467_3_3
   + Z_467_0_3 + Z_467_5_3 + Z_467_1_3 + Z_467_9_3 + Z_467_7_3 + Z_467_6_3
   <= 1
 constraint2_20: Z_2_0_0 <= 1
 constraint2_21: Z_2_0_1 <= 1
 constraint2_22: Z_2_0_2 <= 1
 constraint2_23: Z_2_0_3 <= 1
 constraint2_6200: Z_620_0_0 <= 1
 constraint2_6201: Z_620_0_1 <= 1
 constraint2_6202: Z_620_0_2 <= 1
 constraint2_6203: Z_620_0_3 <= 1
 constraint2_2800: <= 1
 constraint2_2801: <= 1
 constraint2_2802: <= 1
 constraint2_2803: <= 1
 constraint2_2160: <= 1
 constraint2_2161: <= 1
 constraint2_2162: <= 1
 constraint2_2163: <= 1
 constraint2_6140: <= 1
 constraint2_6141: <= 1
 constraint2_6142: <= 1
 constraint2_6143: <= 1
Bounds
Binaries
 Z_513_0_0 Z_513_0_1 Z_513_0_2 Z_513_0_3 Z_513_0_4 Z_209_0_0 Z_209_0_1
 Z_209_0_2 Z_209_0_3 Z_209_0_4 Z_729_2_0 Z_729_2_1 Z_729_2_2 Z_729_2_3
 Z_729_2_4 Z_729_4_0 Z_729_4_1 Z_729_4_2 Z_729_4_3 Z_729_4_4 Z_729_3_0
 Z_729_3_1 Z_729_3_2 Z_729_3_3 Z_729_3_4 Z_729_1_0 Z_729_1_1 Z_729_1_2
 Z_729_1_3 Z_729_1_4 Z_729_5_0 Z_729_5_1 Z_729_5_2 Z_729_5_3 Z_729_5_4
 Z_148_0_0 Z_148_0_1 Z_148_0_2 Z_148_0_3 Z_148_0_4 Z_637_0_0 Z_637_0_1
 Z_637_0_2 Z_637_0_3 Z_637_0_4 Z_593_4_0 Z_593_4_1 Z_593_4_2 Z_593_4_3
 Z_593_4_4 Z_593_5_0 Z_593_5_1 Z_593_5_2 Z_593_5_3 Z_593_5_4 Z_593_1_0
 Z_593_1_1 Z_593_1_2 Z_593_1_3 Z_593_1_4 Z_593_2_0 Z_593_2_1 Z_593_2_2
 Z_593_2_3 Z_593_2_4 Z_593_0_0 Z_593_0_1 Z_593_0_2 Z_593_0_3 Z_593_0_4
 Z_585_0_0 Z_585_0_1 Z_585_0_2 Z_585_0_3 Z_585_0_4 Z_226_0_0 Z_226_0_1
 Z_226_0_2 Z_226_0_3 Z_226_0_4 Z_33_0_0 Z_33_0_1 Z_33_0_2 Z_33_0_3 Z_33_0_4
 Z_467_4_0 Z_467_4_1 Z_467_4_2 Z_467_4_3 Z_467_4_4 Z_467_8_0 Z_467_8_1
 Z_467_8_2 Z_467_8_3 Z_467_8_4 Z_467_2_0 Z_467_2_1 Z_467_2_2 Z_467_2_3
 Z_467_2_4 Z_467_3_0 Z_467_3_1 Z_467_3_2 Z_467_3_3 Z_467_3_4 Z_467_0_0
 Z_467_0_1 Z_467_0_2 Z_467_0_3 Z_467_0_4 Z_467_5_0 Z_467_5_1 Z_467_5_2
 Z_467_5_3 Z_467_5_4 Z_467_1_0 Z_467_1_1 Z_467_1_2 Z_467_1_3 Z_467_1_4
 Z_467_9_0 Z_467_9_1 Z_467_9_2 Z_467_9_3 Z_467_9_4 Z_467_7_0 Z_467_7_1
 Z_467_7_2 Z_467_7_3 Z_467_7_4 Z_467_6_0 Z_467_6_1 Z_467_6_2 Z_467_6_3
 Z_467_6_4 Z_2_0_0 Z_2_0_1 Z_2_0_2 Z_2_0_3 Z_2_0_4 Z_620_0_0 Z_620_0_1
 Z_620_0_2 Z_620_0_3 Z_620_0_4
End
