ilp_joint/output/germination_ilp.mps
NAME germination_srl_ilp
* Max problem is converted into Min one
ROWS
 N  OBJ
 L  constraint1_3774
 L  constraint1_3775
 L  constraint1_3771
 L  constraint1_3772
 L  constraint1_3770
 L  constraint1_6152
 L  constraint1_6154
 L  constraint1_6153
 L  constraint1_6151
 L  constraint1_6155
 L  constraint2_5310
 L  constraint2_5311
 L  constraint2_5312
 L  constraint2_5313
 L  constraint2_3770
 L  constraint2_3771
 L  constraint2_3772
 L  constraint2_3773
 L  constraint2_6150
 L  constraint2_6151
 L  constraint2_6152
 L  constraint2_6153
 L  constraint2_2350
 L  constraint2_2351
 L  constraint2_2352
 L  constraint2_2353
 L  constraint2_1690
 L  constraint2_1691
 L  constraint2_1692
 L  constraint2_1693
 L  constraint2_4710
 L  constraint2_4711
 L  constraint2_4712
 L  constraint2_4713
COLUMNS
    MARKER    'MARKER'                 'INTORG'
    Z_377_4_0  OBJ       -1.5719744627923887e-02
    Z_377_4_0  constraint1_3774  1
    Z_377_4_0  constraint2_3770  1
    Z_377_4_1  OBJ       -8.2430146839850352e-03
    Z_377_4_1  constraint1_3774  1
    Z_377_4_1  constraint2_3771  1
    Z_377_4_2  OBJ       -9.5676927674389775e-02
    Z_377_4_2  constraint1_3774  1
    Z_377_4_2  constraint2_3772  1
    Z_377_4_3  OBJ       -7.6156014865811162e-03
    Z_377_4_3  constraint1_3774  1
    Z_377_4_3  constraint2_3773  1
    Z_377_4_4  OBJ       -7.7274471152712010e-01
    Z_377_4_4  constraint1_3774  1
    Z_377_5_0  OBJ       -4.3864296798299590e-01
    Z_377_5_0  constraint1_3775  1
    Z_377_5_0  constraint2_3770  1
    Z_377_5_1  OBJ       -1.8294187157912992e-01
    Z_377_5_1  constraint1_3775  1
    Z_377_5_1  constraint2_3771  1
    Z_377_5_2  OBJ       -3.2454876527660782e-03
    Z_377_5_2  constraint1_3775  1
    Z_377_5_2  constraint2_3772  1
    Z_377_5_3  OBJ       -1.4622152170680251e-02
    Z_377_5_3  constraint1_3775  1
    Z_377_5_3  constraint2_3773  1
    Z_377_5_4  OBJ       -2.6054752061442776e-01
    Z_377_5_4  constraint1_3775  1
    Z_377_1_0  OBJ       -9.7528774516799090e-05
    Z_377_1_0  constraint1_3771  1
    Z_377_1_0  constraint2_3770  1
    Z_377_1_1  OBJ       -1.1469525121880315e-03
    Z_377_1_1  constraint1_3771  1
    Z_377_1_1  constraint2_3771  1
    Z_377_1_2  OBJ       -6.2960053302620955e-01
    Z_377_1_2  constraint1_3771  1
    Z_377_1_2  constraint2_3772  1
    Z_377_1_3  OBJ       -4.1766300672781858e-04
    Z_377_1_3  constraint1_3771  1
    Z_377_1_3  constraint2_3773  1
    Z_377_1_4  OBJ       -2.6873732268035783e-01
    Z_377_1_4  constraint1_3771  1
    Z_377_2_0  OBJ       -4.3864296798299590e-01
    Z_377_2_0  constraint1_3772  1
    Z_377_2_0  constraint2_3770  1
    Z_377_2_1  OBJ       -1.8294187157912992e-01
    Z_377_2_1  constraint1_3772  1
    Z_377_2_1  constraint2_3771  1
    Z_377_2_2  OBJ       -3.2454876527660782e-03
    Z_377_2_2  constraint1_3772  1
    Z_377_2_2  constraint2_3772  1
    Z_377_2_3  OBJ       -1.4622152170680251e-02
    Z_377_2_3  constraint1_3772  1
    Z_377_2_3  constraint2_3773  1
    Z_377_2_4  OBJ       -2.6054752061442776e-01
    Z_377_2_4  constraint1_3772  1
    Z_377_0_0  OBJ       -9.7528774516799090e-05
    Z_377_0_0  constraint1_3770  1
    Z_377_0_0  constraint2_3770  1
    Z_377_0_1  OBJ       -1.1469525121880315e-03
    Z_377_0_1  constraint1_3770  1
    Z_377_0_1  constraint2_3771  1
    Z_377_0_2  OBJ       -6.2960053302620955e-01
    Z_377_0_2  constraint1_3770  1
    Z_377_0_2  constraint2_3772  1
    Z_377_0_3  OBJ       -4.1766300672781858e-04
    Z_377_0_3  constraint1_3770  1
    Z_377_0_3  constraint2_3773  1
    Z_377_0_4  OBJ       -2.6873732268035783e-01
    Z_377_0_4  constraint1_3770  1
    Z_615_2_0  OBJ       -3.4735761842006338e-03
    Z_615_2_0  constraint1_6152  1
    Z_615_2_0  constraint2_6150  1
    Z_615_2_1  OBJ       -7.0971545332592549e-03
    Z_615_2_1  constraint1_6152  1
    Z_615_2_1  constraint2_6151  1
    Z_615_2_2  OBJ       -4.0030386226266911e-03
    Z_615_2_2  constraint1_6152  1
    Z_615_2_2  constraint2_6152  1
    Z_615_2_3  OBJ       -3.4971577488681414e-03
    Z_615_2_3  constraint1_6152  1
    Z_615_2_3  constraint2_6153  1
    Z_615_2_4  OBJ       -8.8192907291104539e-01
    Z_615_2_4  constraint1_6152  1
    Z_615_4_0  OBJ       -1.7673473656714489e-03
    Z_615_4_0  constraint1_6154  1
    Z_615_4_0  constraint2_6150  1
    Z_615_4_1  OBJ       -1.4418208007711248e-02
    Z_615_4_1  constraint1_6154  1
    Z_615_4_1  constraint2_6151  1
    Z_615_4_2  OBJ       -7.4549121187843362e-02
    Z_615_4_2  constraint1_6154  1
    Z_615_4_2  constraint2_6152  1
    Z_615_4_3  OBJ       -7.4929661767783214e-03
    Z_615_4_3  constraint1_6154  1
    Z_615_4_3  constraint2_6153  1
    Z_615_4_4  OBJ       -8.0177235726199569e-01
    Z_615_4_4  constraint1_6154  1
    Z_615_3_0  OBJ       -7.2940128662890933e-03
    Z_615_3_0  constraint1_6153  1
    Z_615_3_0  constraint2_6150  1
    Z_615_3_1  OBJ       -1.6526261982296241e-02
    Z_615_3_1  constraint1_6153  1
    Z_615_3_1  constraint2_6151  1
    Z_615_3_2  OBJ       -1.3995328539902036e-02
    Z_615_3_2  constraint1_6153  1
    Z_615_3_2  constraint2_6152  1
    Z_615_3_3  OBJ       -7.8608872733687222e-03
    Z_615_3_3  constraint1_6153  1
    Z_615_3_3  constraint2_6153  1
    Z_615_3_4  OBJ       -8.5432350933814394e-01
    Z_615_3_4  constraint1_6153  1
    Z_615_1_0  OBJ       -5.7779704035244260e-03
    Z_615_1_0  constraint1_6151  1
    Z_615_1_0  constraint2_6150  1
    Z_615_1_1  OBJ       -1.0722714714087275e-02
    Z_615_1_1  constraint1_6151  1
    Z_615_1_1  constraint2_6151  1
    Z_615_1_2  OBJ       -1.1887009929644513e-02
    Z_615_1_2  constraint1_6151  1
    Z_615_1_2  constraint2_6152  1
    Z_615_1_3  OBJ       -7.9105896654597697e-03
    Z_615_1_3  constraint1_6151  1
    Z_615_1_3  constraint2_6153  1
    Z_615_1_4  OBJ       -8.6370171528728412e-01
    Z_615_1_4  constraint1_6151  1
    Z_615_5_0  OBJ       -1.7673473656714489e-03
    Z_615_5_0  constraint1_6155  1
    Z_615_5_0  constraint2_6150  1
    Z_615_5_1  OBJ       -1.4418208007711248e-02
    Z_615_5_1  constraint1_6155  1
    Z_615_5_1  constraint2_6151  1
    Z_615_5_2  OBJ       -7.4549121187843362e-02
    Z_615_5_2  constraint1_6155  1
    Z_615_5_2  constraint2_6152  1
    Z_615_5_3  OBJ       -7.4929661767783214e-03
    Z_615_5_3  constraint1_6155  1
    Z_615_5_3  constraint2_6153  1
    Z_615_5_4  OBJ       -8.0177235726199569e-01
    Z_615_5_4  constraint1_6155  1
    MARKER    'MARKER'                 'INTEND'
RHS
    RHS1      constraint1_3774  1
    RHS1      constraint1_3775  1
    RHS1      constraint1_3771  1
    RHS1      constraint1_3772  1
    RHS1      constraint1_3770  1
    RHS1      constraint1_6152  1
    RHS1      constraint1_6154  1
    RHS1      constraint1_6153  1
    RHS1      constraint1_6151  1
    RHS1      constraint1_6155  1
    RHS1      constraint2_5310  1
    RHS1      constraint2_5311  1
    RHS1      constraint2_5312  1
    RHS1      constraint2_5313  1
    RHS1      constraint2_3770  1
    RHS1      constraint2_3771  1
    RHS1      constraint2_3772  1
    RHS1      constraint2_3773  1
    RHS1      constraint2_6150  1
    RHS1      constraint2_6151  1
    RHS1      constraint2_6152  1
    RHS1      constraint2_6153  1
    RHS1      constraint2_2350  1
    RHS1      constraint2_2351  1
    RHS1      constraint2_2352  1
    RHS1      constraint2_2353  1
    RHS1      constraint2_1690  1
    RHS1      constraint2_1691  1
    RHS1      constraint2_1692  1
    RHS1      constraint2_1693  1
    RHS1      constraint2_4710  1
    RHS1      constraint2_4711  1
    RHS1      constraint2_4712  1
    RHS1      constraint2_4713  1
BOUNDS
 UP BND1      Z_377_4_0  1
 UP BND1      Z_377_4_1  1
 UP BND1      Z_377_4_2  1
 UP BND1      Z_377_4_3  1
 UP BND1      Z_377_4_4  1
 UP BND1      Z_377_5_0  1
 UP BND1      Z_377_5_1  1
 UP BND1      Z_377_5_2  1
 UP BND1      Z_377_5_3  1
 UP BND1      Z_377_5_4  1
 UP BND1      Z_377_1_0  1
 UP BND1      Z_377_1_1  1
 UP BND1      Z_377_1_2  1
 UP BND1      Z_377_1_3  1
 UP BND1      Z_377_1_4  1
 UP BND1      Z_377_2_0  1
 UP BND1      Z_377_2_1  1
 UP BND1      Z_377_2_2  1
 UP BND1      Z_377_2_3  1
 UP BND1      Z_377_2_4  1
 UP BND1      Z_377_0_0  1
 UP BND1      Z_377_0_1  1
 UP BND1      Z_377_0_2  1
 UP BND1      Z_377_0_3  1
 UP BND1      Z_377_0_4  1
 UP BND1      Z_615_2_0  1
 UP BND1      Z_615_2_1  1
 UP BND1      Z_615_2_2  1
 UP BND1      Z_615_2_3  1
 UP BND1      Z_615_2_4  1
 UP BND1      Z_615_4_0  1
 UP BND1      Z_615_4_1  1
 UP BND1      Z_615_4_2  1
 UP BND1      Z_615_4_3  1
 UP BND1      Z_615_4_4  1
 UP BND1      Z_615_3_0  1
 UP BND1      Z_615_3_1  1
 UP BND1      Z_615_3_2  1
 UP BND1      Z_615_3_3  1
 UP BND1      Z_615_3_4  1
 UP BND1      Z_615_1_0  1
 UP BND1      Z_615_1_1  1
 UP BND1      Z_615_1_2  1
 UP BND1      Z_615_1_3  1
 UP BND1      Z_615_1_4  1
 UP BND1      Z_615_5_0  1
 UP BND1      Z_615_5_1  1
 UP BND1      Z_615_5_2  1
 UP BND1      Z_615_5_3  1
 UP BND1      Z_615_5_4  1
QUADOBJ
    Z_377_1_0  Z_615_2_0  -7.5584040712641951e-02
    Z_377_1_0  Z_615_3_0  -1.7821381574719852e-02
    Z_377_1_0  Z_615_5_0  -1.2532758483024048e-02
    Z_377_1_1  Z_615_2_1  -7.5584040712641951e-02
    Z_377_1_1  Z_615_3_1  -1.7821381574719852e-02
    Z_377_1_1  Z_615_5_1  -1.2532758483024048e-02
    Z_377_1_2  Z_615_2_2  -7.5584040712641951e-02
    Z_377_1_2  Z_615_3_2  -1.7821381574719852e-02
    Z_377_1_2  Z_615_5_2  -1.2532758483024048e-02
    Z_377_1_3  Z_615_2_3  -7.5584040712641951e-02
    Z_377_1_3  Z_615_3_3  -1.7821381574719852e-02
    Z_377_1_3  Z_615_5_3  -1.2532758483024048e-02
    Z_377_1_4  Z_615_2_4  -7.5584040712641951e-02
    Z_377_1_4  Z_615_3_4  -1.7821381574719852e-02
    Z_377_1_4  Z_615_5_4  -1.2532758483024048e-02
    Z_377_2_0  Z_615_3_0  -2.7677188234533994e-03
    Z_377_2_0  Z_615_5_0  -1.2532758483024048e-02
    Z_377_2_1  Z_615_3_1  -2.7677188234533994e-03
    Z_377_2_1  Z_615_5_1  -1.2532758483024048e-02
    Z_377_2_2  Z_615_3_2  -2.7677188234533994e-03
    Z_377_2_2  Z_615_5_2  -1.2532758483024048e-02
    Z_377_2_3  Z_615_3_3  -2.7677188234533994e-03
    Z_377_2_3  Z_615_5_3  -1.2532758483024048e-02
    Z_377_2_4  Z_615_3_4  -2.7677188234533994e-03
    Z_377_2_4  Z_615_5_4  -1.2532758483024048e-02
ENDATA
