ilp_joint/output/germination_ilp.sol
# Solution for model germination_srl_ilp
# Objective value = 6.6950107259684399e+00
Z_377_4_0 0
Z_377_4_1 0
Z_377_4_2 0
Z_377_4_3 0
Z_377_4_4 1
Z_377_5_0 1
Z_377_5_1 0
Z_377_5_2 0
Z_377_5_3 0
Z_377_5_4 0
Z_377_1_0 0
Z_377_1_1 0
Z_377_1_2 0
Z_377_1_3 0
Z_377_1_4 1
Z_377_2_0 0
Z_377_2_1 0
Z_377_2_2 0
Z_377_2_3 0
Z_377_2_4 1
Z_377_0_0 0
Z_377_0_1 0
Z_377_0_2 1
Z_377_0_3 0
Z_377_0_4 0
Z_615_2_0 0
Z_615_2_1 0
Z_615_2_2 0
Z_615_2_3 0
Z_615_2_4 1
Z_615_4_0 0
Z_615_4_1 0
Z_615_4_2 0
Z_615_4_3 0
Z_615_4_4 1
Z_615_3_0 0
Z_615_3_1 0
Z_615_3_2 0
Z_615_3_3 0
Z_615_3_4 1
Z_615_1_0 0
Z_615_1_1 0
Z_615_1_2 0
Z_615_1_3 0
Z_615_1_4 1
Z_615_5_0 0
Z_615_5_1 0
Z_615_5_2 0
Z_615_5_3 0
Z_615_5_4 1
